15
00 91 38 48 40 12 81 40 68 66 75 45 46 54 64
36 00 04 90 51 91 09 61 50 74 81 20 12 60 69
47 50 00 68 80 34 18 11 37 55 75 65 33 73 43
53 67 53 00 34 65 31 70 47 09 84 22 35 32 26
41 20 60 83 00 09 29 54 63 56 49 85 70 85 60
87 35 46 70 64 00 47 26 03 70 75 36 46 25 56
58 54 79 93 17 25 00 14 18 79 05 34 28 31 55
31 06 01 18 92 94 02 00 26 03 18 71 90 45 42
81 81 32 82 53 88 06 94 00 47 48 61 21 92 23
31 03 18 15 07 19 89 97 51 00 92 60 24 56 72
28 75 82 60 11 74 32 83 44 81 00 26 70 86 69
46 83 21 10 24 95 21 85 79 39 72 00 70 95 21
82 20 79 70 02 38 71 89 92 78 76 68 00 36 37
79 83 75 97 13 58 93 61 51 22 34 07 01 00 10
34 43 38 83 19 99 22 79 36 23 78 94 52 61 00
